\* row_knapsack_problem *\
Minimize
knapsack: 3 row_1 + 22 row_10 + 4 row_11 + 23 row_12 + 23 row_14 + 22 row_16
 + 23 row_17 + 23 row_18 + 21 row_19 + 3 row_20 + 4 row_21 + 22 row_22
 + 21 row_24 + 23 row_25 + 23 row_27 + 23 row_29 + 23 row_3 + 23 row_30
 + 23 row_32 + 22 row_34 + 23 row_35 + 3 row_36 + 23 row_37 + 22 row_39
 + 23 row_40 + 23 row_41 + 22 row_42 + 23 row_44 + 22 row_47 + 22 row_6
 + 4 row_9
Subject To
sensitivity: 20 row_1 + row_10 + 19 row_11 + row_16 + 2 row_19 + 20 row_20
 + 19 row_21 + row_22 + 2 row_24 + row_34 + 20 row_36 + row_39 + row_42
 + row_47 + row_6 + 19 row_9 >= 12.9
Bounds
 row_1 <= 1
 row_10 <= 1
 row_11 <= 1
 row_12 <= 1
 row_14 <= 1
 row_16 <= 1
 row_17 <= 1
 row_18 <= 1
 row_19 <= 1
 row_20 <= 1
 row_21 <= 1
 row_22 <= 1
 row_24 <= 1
 row_25 <= 1
 row_27 <= 1
 row_29 <= 1
 row_3 <= 1
 row_30 <= 1
 row_32 <= 1
 row_34 <= 1
 row_35 <= 1
 row_36 <= 1
 row_37 <= 1
 row_39 <= 1
 row_40 <= 1
 row_41 <= 1
 row_42 <= 1
 row_44 <= 1
 row_47 <= 1
 row_6 <= 1
 row_9 <= 1
End
